SDVRP instances/custom_instances/p01_29_splitx10_0.vrp
NAME:p01_29_splitx10_
BEST_KNOWN: 0
COMMENT: 0
DIMENSION: 246
CAPACITY: 1600
EDGE_WEIGHT_FORMAT: FUNCTION
EDGE_WEIGHT_TYPE: EXACT_2D
NODE_COORD_SECTION
1 0.00000 0.00000
2 -9 34
3 -9 34
4 -9 34
5 -9 34
6 -9 34
7 -9 34
8 -9 34
9 42 39
10 42 39
11 42 39
12 42 39
13 7 2
14 7 2
15 7 2
16 7 2
17 7 2
18 11 44
19 11 44
20 11 44
21 11 44
22 11 44
23 11 44
24 37 -15
25 37 -15
26 37 -15
27 37 -15
28 37 -15
29 40 42
30 40 42
31 40 42
32 40 42
33 40 42
34 40 42
35 36 16
36 36 16
37 36 16
38 36 16
39 36 16
40 36 16
41 36 16
42 -44 -15
43 -44 -15
44 -44 -15
45 -44 -15
46 -33 -2
47 -33 -2
48 -33 -2
49 -33 -2
50 -33 -2
51 -33 -2
52 -6 -4
53 -6 -4
54 -6 -4
55 -21 4
56 -21 4
57 -21 4
58 -21 4
59 -27 -17
60 -27 -17
61 -27 -17
62 -27 -17
63 33 -35
64 33 -35
65 33 -35
66 33 -35
67 -33 6
68 -33 6
69 -33 6
70 -33 6
71 -33 6
72 -33 6
73 -33 6
74 -17 -3
75 -17 -3
76 -17 -3
77 -17 -3
78 -17 -3
79 -17 -3
80 -17 -3
81 25 -39
82 25 -39
83 25 -39
84 25 -39
85 25 -39
86 -24 -15
87 -24 -15
88 -24 -15
89 -24 -15
90 -34 4
91 -34 4
92 -34 4
93 -34 4
94 -34 4
95 -34 4
96 -34 4
97 9 -46
98 9 -46
99 9 -46
100 9 -46
101 9 -46
102 9 -46
103 9 -46
104 16 -5
105 16 -5
106 16 -5
107 16 -5
108 16 -5
109 16 -5
110 16 -5
111 -5 30
112 -5 30
113 -5 30
114 -5 30
115 43 -49
116 43 -49
117 43 -49
118 43 -49
119 -19 -7
120 -19 -7
121 -19 -7
122 -19 -7
123 -23 -49
124 -23 -49
125 -23 -49
126 28 3
127 28 3
128 -34 -38
129 -34 -38
130 -34 -38
131 -22 31
132 -22 31
133 -22 31
134 6 37
135 6 37
136 6 37
137 6 37
138 6 37
139 34 29
140 34 29
141 34 29
142 34 29
143 -39 -26
144 -39 -26
145 -39 -26
146 -39 -26
147 -39 -26
148 -39 -26
149 10 -17
150 10 -17
151 10 -17
152 10 -17
153 10 -17
154 10 -17
155 10 -17
156 -37 43
157 -37 43
158 -37 43
159 -37 43
160 -37 43
161 -37 43
162 -1 -8
163 -1 -8
164 -1 -8
165 -1 -8
166 -1 -8
167 -1 -8
168 30 -42
169 30 -42
170 30 -42
171 30 -42
172 30 -42
173 20 31
174 20 31
175 20 31
176 20 31
177 20 31
178 -1 42
179 -1 42
180 -1 42
181 -26 17
182 -26 17
183 -48 -4
184 -48 -4
185 -48 -4
186 -48 -4
187 -29 50
188 -29 50
189 -29 50
190 -43 -18
191 -43 -18
192 -43 -18
193 -43 -18
194 -43 -18
195 34 -25
196 34 -25
197 34 -25
198 34 -25
199 34 -25
200 34 -25
201 39 -37
202 39 -37
203 39 -37
204 39 -37
205 39 -37
206 13 14
207 13 14
208 13 14
209 13 14
210 7 16
211 7 16
212 7 16
213 7 16
214 7 16
215 7 16
216 7 16
217 15 10
218 15 10
219 15 10
220 15 10
221 -28 -12
222 -28 -12
223 -28 -12
224 -28 -12
225 47 -38
226 47 -38
227 47 -38
228 47 -38
229 47 -38
230 -8 -27
231 -8 -27
232 -8 -27
233 -7 -40
234 -7 -40
235 -7 -40
236 -7 -40
237 -7 -40
238 -7 -40
239 -7 -40
240 42 48
241 42 48
242 42 48
243 42 48
244 42 48
245 42 48
246 42 48
DEMAND_SECTION
1 0
2 320
3 80
4 16
5 16
6 16
7 16
8 6
9 320
10 160
11 80
12 10
13 320
14 160
15 80
16 16
17 14
18 160
19 80
20 16
21 16
22 16
23 12
24 320
25 320
26 80
27 16
28 14
29 160
30 16
31 16
32 16
33 16
34 6
35 320
36 160
37 80
38 16
39 16
40 16
41 12
42 320
43 160
44 80
45 10
46 320
47 80
48 16
49 16
50 16
51 2
52 320
53 160
54 10
55 320
56 160
57 80
58 10
59 320
60 16
61 16
62 8
63 320
64 320
65 16
66 14
67 160
68 80
69 16
70 16
71 16
72 16
73 6
74 320
75 80
76 16
77 16
78 16
79 16
80 6
81 320
82 320
83 16
84 16
85 8
86 160
87 16
88 16
89 8
90 160
91 80
92 16
93 16
94 16
95 16
96 6
97 320
98 80
99 16
100 16
101 16
102 16
103 6
104 320
105 160
106 80
107 16
108 16
109 16
110 2
111 320
112 160
113 80
114 10
115 320
116 320
117 80
118 10
119 320
120 160
121 80
122 10
123 320
124 160
125 10
126 320
127 160
128 320
129 320
130 10
131 320
132 16
133 14
134 320
135 16
136 16
137 16
138 12
139 160
140 16
141 16
142 8
143 160
144 80
145 16
146 16
147 16
148 12
149 320
150 160
151 80
152 16
153 16
154 16
155 12
156 320
157 16
158 16
159 16
160 16
161 6
162 320
163 320
164 80
165 16
166 16
167 8
168 320
169 320
170 80
171 16
172 14
173 160
174 16
175 16
176 16
177 12
178 320
179 320
180 10
181 320
182 320
183 320
184 320
185 16
186 14
187 320
188 320
189 80
190 320
191 320
192 16
193 16
194 8
195 320
196 80
197 16
198 16
199 16
200 12
201 320
202 80
203 16
204 16
205 8
206 320
207 320
208 80
209 10
210 320
211 320
212 80
213 16
214 16
215 16
216 12
217 320
218 16
219 16
220 8
221 320
222 160
223 16
224 14
225 160
226 16
227 16
228 16
229 2
230 320
231 160
232 10
233 320
234 320
235 16
236 16
237 16
238 16
239 6
240 320
241 80
242 16
243 16
244 16
245 16
246 6
DEPOT_SECTION
1
-1
EOF