SDVRP instances/custom_instances/p01_29_splitx10_0.sol
245 -5 3 6 2 7 1 4 110 113 111 112 12 13 14 -16 15 125 126 37 35 38 36 39 34 40 217 216 218 219 -33 32 30 29 28 31 240 242 243 244 241 239 245 10 9 8 11 141 139 140 138 -42 43 44 41 190 191 192 189 193 61 58 -51 53 52 161 166 165 162 163 164 -56 55 185 182 184 183 49 47 45 48 46 50 75 78 74 77 -57 54 89 91 90 92 93 94 95 67 69 66 70 71 72 68 180 181 -63 64 65 62 167 170 171 168 169 149 152 -73 76 79 220 222 223 221 85 119 120 118 121 -88 87 86 60 59 145 143 147 144 146 142 129 128 127 124 122 123 -100 97 102 101 99 98 96 84 80 81 82 83 150 151 154 148 153 -105 196 195 197 199 198 226 225 224 227 228 114 115 117 116 203 202 200 201 204 -106 104 108 107 109 103 23 26 27 24 25 194 -131 130 132 186 188 187 160 159 156 155 158 157 -137 136 133 134 135 178 177 179 17 20 18 22 19 21 172 175 174 176 173 -205 207 208 206 211 213 214 212 209 210 215 -229 231 230 232 233 237 238 236 234 235 0 





OBJ=
1598.772
BEST_KNOWN=
0.000